decision_x1=[0,2];
decision_x2=[0,2];
decision_x3=[0,2];
decision_x4=[0,2];
decision_x5=[0,2];
random_y1=[0,2];
constraint_x3_x1=[
0,0,0.67|
0,1,2.4|
0,2,3.2|
1,0,8.7|
1,1,5.6|
1,2,6.8|
2,0,0.26|
2,1,1.8|
2,2,5.8|
];
constraint_x3_x2=[
0,0,0.51|
0,1,8.7|
0,2,7|
1,0,7.3|
1,1,10|
1,2,0.28|
2,0,1.1|
2,1,5.6|
2,2,5.1|
];
constraint_x4_x2=[
0,0,7.8|
0,1,5.8|
0,2,7.3|
1,0,3.9|
1,1,7.3|
1,2,5.3|
2,0,5.9|
2,1,3.6|
2,2,4.1|
];
constraint_x5_x2=[
0,0,0.65|
0,1,4.7|
0,2,8.4|
1,0,4.3|
1,1,5.5|
1,2,6.5|
2,0,9.6|
2,1,4.7|
2,2,0.47|
];
constraint_x5_x3=[
0,0,3.5|
0,1,6.6|
0,2,9.9|
1,0,5.7|
1,1,2.2|
1,2,7.4|
2,0,1.5|
2,1,7.3|
2,2,7.1|
];
constraint_x1_y1=[
0,0,7.2|
0,1,4.1|
0,2,7.1|
1,0,8.4|
1,1,9.9|
1,2,7.8|
2,0,4.6|
2,1,8.5|
2,2,7|
];
initial_distribution_y1=[0.032,0.21,0.76];
transition_y1=[
0.027,0.75,0.22|
0.027,0.56,0.42|
0.0087,0.18,0.81|
];
